
******************************************************************************
This program contains Ipopt, a library for large-scale nonlinear optimization.
 Ipopt is released as open source code under the Eclipse Public License (EPL).
         For more information visit http://projects.coin-or.org/Ipopt

This version of Ipopt was compiled from source code available at
    https://github.com/IDAES/Ipopt as part of the Institute for the Design of
    Advanced Energy Systems Process Systems Engineering Framework (IDAES PSE
    Framework) Copyright (c) 2018-2019. See https://github.com/IDAES/idaes-pse.

This version of Ipopt was compiled using HSL, a collection of Fortran codes
    for large-scale scientific computation.  All technical papers, sales and
    publicity material resulting from use of the HSL codes within IPOPT must
    contain the following acknowledgement:
        HSL, a collection of Fortran codes for large-scale scientific
        computation. See http://www.hsl.rl.ac.uk.
******************************************************************************

This is Ipopt version 3.13.2, running with linear solver ma27.

Number of nonzeros in equality constraint Jacobian...:      808
Number of nonzeros in inequality constraint Jacobian.:        0
Number of nonzeros in Lagrangian Hessian.............:      702

Total number of variables............................:      351
                     variables with only lower bounds:      108
                variables with lower and upper bounds:      189
                     variables with only upper bounds:        0
Total number of equality constraints.................:      350
Total number of inequality constraints...............:        0
        inequality constraints with only lower bounds:        0
   inequality constraints with lower and upper bounds:        0
        inequality constraints with only upper bounds:        0

iter    objective    inf_pr   inf_du lg(mu)  ||d||  lg(rg) alpha_du alpha_pr  ls
   0  0.0000000e+00 6.74e-01 1.42e-14  -1.0 0.00e+00    -  0.00e+00 0.00e+00   0
   1  1.2550892e+00 4.40e-01 2.44e+05  -1.0 1.26e+05    -  4.87e-01 5.99e-01h  1
   2  1.2820698e+00 4.33e-01 2.37e+05  -1.0 5.07e+04    -  8.16e-01 1.64e-02h  1
   3  1.6383729e+00 3.77e-01 2.09e+05  -1.0 2.18e+05    -  7.76e-01 1.26e-01h  1
   4  1.5759833e+01 5.18e-02 6.93e+03  -1.0 1.97e+05    -  8.00e-01 9.90e-01h  1
   5  1.8807513e+01 1.58e-03 4.74e+02  -1.0 2.38e+04    -  9.68e-01 9.90e-01h  1
   6  1.8877295e+01 1.71e-05 2.44e+01  -1.0 5.20e+02    -  9.90e-01 9.90e-01h  1
   7  1.8976216e+01 4.47e-05 1.10e+03  -1.0 6.98e+02    -  9.90e-01 9.90e-01h  1
   8  1.8925442e+01 3.98e-05 5.13e+07  -2.5 9.53e+02    -  9.97e-01 3.72e-01f  2
   9  1.8876787e+01 1.08e-05 5.14e+05  -2.5 3.41e+02    -  1.00e+00 9.97e-01h  1
iter    objective    inf_pr   inf_du lg(mu)  ||d||  lg(rg) alpha_du alpha_pr  ls
  10  1.8876886e+01 3.13e-08 1.31e+08  -2.5 6.98e-01    -  1.00e+00 9.97e-01h  1
In iteration 10, 27 Slacks too small, adjusting variable bounds
  11  1.8876887e+01 2.22e-10 4.61e+10  -2.5 1.18e-03    -  1.00e+00 9.97e-01h  1
  12  1.8876887e+01 3.07e-10 2.84e-03  -2.5 3.03e-05    -  1.00e+00 1.00e+00H  1
  13  1.8876842e+01 3.13e-10 4.58e+10  -9.0 2.01e+01    -  1.00e+00 1.55e-02f  7
  14  1.8874035e+01 3.66e-10 9.59e+04  -9.0 1.96e+01    -  1.00e+00 1.00e+00F  1
  15  1.8874035e+01 3.16e-10 5.86e-11  -9.0 4.81e-05    -  1.00e+00 1.00e+00h  1

Number of Iterations....: 15

                                   (scaled)                 (unscaled)
Objective...............:   1.8874034717711265e+01    1.8874034717711265e+01
Dual infeasibility......:   5.8581816285574395e-11    5.8581816285574395e-11
Constraint violation....:   3.1602853667322961e-10    3.1602853667322961e-10
Complementarity.........:   9.0909273287039394e-10    9.0909273287039394e-10
Overall NLP error.......:   3.1602853667322961e-10    9.0909273287039394e-10


Number of objective function evaluations             = 30
Number of objective gradient evaluations             = 16
Number of equality constraint evaluations            = 30
Number of inequality constraint evaluations          = 0
Number of equality constraint Jacobian evaluations   = 16
Number of inequality constraint Jacobian evaluations = 0
Number of Lagrangian Hessian evaluations             = 15
Total CPU secs in IPOPT (w/o function evaluations)   =      0.032
Total CPU secs in NLP function evaluations           =      0.349

EXIT: Optimal Solution Found.
